
Gurobi 7.5.1 (mac64, Python) logging started Thu Dec 21 14:57:16 2017

Academic license - for non-commercial use only

Gurobi 7.5.1 (mac64, Python) logging started Thu Dec 21 14:58:07 2017

Academic license - for non-commercial use only

Gurobi 7.5.1 (mac64, Python) logging started Thu Dec 21 14:59:07 2017

Academic license - for non-commercial use only

Gurobi 7.5.1 (mac64, Python) logging started Thu Dec 21 14:59:36 2017

Academic license - for non-commercial use only

Gurobi 7.5.1 (mac64, Python) logging started Thu Dec 21 14:59:56 2017

Academic license - for non-commercial use only

Gurobi 7.5.1 (mac64, Python) logging started Thu Dec 21 15:00:37 2017

Academic license - for non-commercial use only

Gurobi 7.5.1 (mac64, Python) logging started Thu Dec 21 19:03:02 2017

Academic license - for non-commercial use only

Gurobi 7.5.1 (mac64, Python) logging started Thu Dec 21 19:04:45 2017

Academic license - for non-commercial use only

Gurobi 7.5.1 (mac64, Python) logging started Thu Dec 21 19:05:31 2017

Academic license - for non-commercial use only

Gurobi 7.5.1 (mac64, Python) logging started Thu Dec 21 19:06:13 2017

Academic license - for non-commercial use only

Gurobi 7.5.1 (mac64, Python) logging started Thu Dec 21 19:33:21 2017

Academic license - for non-commercial use only

Gurobi 7.5.1 (mac64, Python) logging started Thu Dec 21 19:37:01 2017

Academic license - for non-commercial use only

Gurobi 7.5.1 (mac64, Python) logging started Thu Dec 21 19:37:49 2017

Academic license - for non-commercial use only

Gurobi 7.5.1 (mac64, Python) logging started Thu Dec 21 19:38:30 2017

Academic license - for non-commercial use only

Gurobi 7.5.1 (mac64, Python) logging started Thu Dec 21 19:40:13 2017

Academic license - for non-commercial use only

Gurobi 7.5.1 (mac64, Python) logging started Thu Dec 21 20:34:10 2017

Academic license - for non-commercial use only
